(set-option :produce-models true)
(set-logic QF_UF)
(declare-fun p9() Bool)
(declare-fun p19() Bool)
(declare-fun p15() Bool)
(declare-fun p14() Bool)
(declare-fun p10() Bool)
(declare-fun p17() Bool)
(declare-fun p22() Bool)
(declare-fun p24() Bool)
(declare-fun p8() Bool)
(declare-fun p23() Bool)
(declare-fun p18() Bool)
(declare-fun p0() Bool)
(declare-fun p16() Bool)
(declare-fun p21() Bool)
(declare-fun p5() Bool)
(declare-fun p11() Bool)
(declare-fun p1() Bool)
(declare-fun p20() Bool)
(declare-fun p2() Bool)
(declare-fun p7() Bool)
(declare-fun p4() Bool)
(declare-fun p13() Bool)
(declare-fun p3() Bool)
(declare-fun p12() Bool)
(declare-fun p6() Bool)
(assert
(and (or p9 p19 (not p15) p19 (not p14)) (or p10 p10 p17 (not p17) p22) (or p24 (not p10) (not p8) p23 (not p24)) (or p18 p15 p0 (not p15) (not p24)) (or p16 p17 (not p22) p21 (not p22)) (or (not p5) p0 (not p15) p19 (not p17)) (or p11 p19 p18 (not p5) (not p1)) (or p20 p2 p7 (not p17) (not p23)) (or p4 (not p17) (not p0) (not p7) (not p10)) (or p2 (not p5) (not p5) p21 p18) (or p4 (not p24) (not p13) (not p13) (not p5)) (or (not p2) p10 (not p20) (not p3) (not p2)) (or p7 p5 p12 p2 p17) (or p19 (not p21) p18 (not p8) p2) (or p22 (not p4) p0 p1 (not p23)) (or (not p2) (not p6) p7 (not p15) (not p12)) (or p5 (not p7) (not p3) (not p15) (not p10)) (or (not p22) p21 (not p0) p17 (not p23)) (or (not p17) p20 (not p3) p15 p10) (or (not p16) p13 p18 p11 (not p8)) (or (not p20) (not p19) p16 (not p4) (not p20)) (or p4 p22 p13 p10 p22) (or p4 (not p23) p10 p7 p10) (or (not p21) (not p4) p18 (not p5) (not p0)) (or p18 p8 p22 p18 (not p13)) (or (not p16) (not p2) (not p23) (not p11) (not p18)) (or p12 p10 (not p12) p16 p4) (or p21 (not p19) p7 p8 (not p0)) (or (not p20) (not p4) (not p18) (not p4) (not p1)) (or p9 (not p22) p3 (not p24) (not p12)) (or (not p9) (not p5) p14 p7 p19) (or (not p6) (not p23) p12 (not p9) p19) (or (not p11) (not p12) p9 p12 (not p23)) (or p1 p24 p8 (not p21) p20) (or p13 p8 p11 (not p7) p16) (or p17 (not p10) p12 p16 p4) (or (not p3) (not p3) (not p1) (not p10) p2) (or (not p4) (not p11) (not p6) p9 p7) (or p18 (not p22) (not p14) p9 (not p17)) (or (not p1) p6 p20 (not p7) (not p3)) (or p9 p19 p0 (not p17) p0) (or p12 p15 p20 (not p3) (not p16)) (or p15 (not p23) p19 (not p15) (not p24)) (or p6 (not p16) (not p24) p23 p10) (or p14 (not p4) (not p22) p6 (not p9)) (or (not p24) p4 p7 p20 (not p22)) (or p22 p1 p17 (not p19) (not p12)) (or p22 p3 (not p7) (not p3) p19) (or (not p0) (not p6) (not p7) (not p9) p16) (or (not p9) p19 p23 (not p16) p3) (or p23 (not p10) (not p20) p3 p23) (or (not p20) (not p9) p1 (not p13) (not p1)) (or (not p8) (not p6) p16 p1 p2) (or (not p22) (not p2) (not p1) p16 (not p7)) (or p8 p22 p16 (not p20) p6) (or (not p16) p18 (not p20) (not p10) (not p16)) (or (not p4) p14 p3 p17 p2) (or p9 p11 (not p18) (not p23) p24) (or p2 p3 p3 p11 p8) (or (not p2) p23 (not p5) (not p4) (not p24)) (or p15 p10 (not p21) (not p9) p1) (or p18 p13 p15 (not p17) (not p20)) (or p7 (not p2) (not p9) (not p5) (not p7)) (or p19 p12 p3 p7 p8) (or (not p8) (not p15) (not p10) (not p13) p14) (or (not p15) p4 p10 (not p9) p8) (or (not p7) (not p18) (not p21) p23 p23) (or p9 p20 (not p21) (not p14) (not p24)) (or p23 p7 p0 p6 (not p1)) (or p9 (not p6) p9 p1 p8) (or p19 (not p23) p1 (not p11) (not p6)) (or (not p24) (not p2) p8 p24 p13) (or (not p12) p14 p1 p17 (not p19)) (or (not p17) p0 p17 p18 (not p12)) (or p0 p11 (not p10) p4 (not p16)) (or p14 p1 (not p6) (not p13) p0) (or p9 p2 (not p16) p5 p15) (or (not p9) (not p12) p17 p10 (not p12)) (or (not p0) p16 (not p8) p18 p21) (or (not p3) p23 p15 p3 p21) (or (not p9) p21 (not p6) (not p18) p3) (or (not p6) p6 (not p15) (not p10) p19) (or (not p6) p14 p11 (not p16) (not p9)) (or p22 p0 p14 p22 (not p14)) (or (not p18) p11 p13 p13 (not p17)) (or (not p20) p14 (not p6) (not p6) p5) (or p15 (not p14) p1 p22 p7) (or p2 (not p23) p4 p23 p16) (or (not p6) (not p3) p4 (not p5) (not p5)) (or p21 (not p17) (not p16) (not p6) p11) (or p17 (not p13) (not p11) p11 p24) (or p17 (not p4) (not p14) (not p21) p20) (or p23 (not p17) p24 p18 p16) (or p4 p11 p24 (not p19) p12) (or p17 p1 p18 (not p18) (not p9)) (or p23 p6 (not p23) p7 (not p11)) (or (not p9) (not p9) p0 p13 (not p18)) (or p2 (not p0) p21 (not p3) p18) (or (not p1) p21 (not p19) (not p15) (not p4)) (or p8 p2 p13 (not p13) (not p3)) (or (not p7) (not p5) (not p21) (not p2) p16) (or p18 (not p19) (not p19) p22 (not p10)) (or p6 (not p15) (not p8) p12 (not p21)) (or (not p5) p11 p17 (not p6) p18) (or (not p6) p21 p17 (not p21) p2) (or p23 p10 (not p3) (not p18) p0) (or (not p5) p21 p10 (not p0) (not p0)) (or p6 (not p3) (not p22) (not p4) p0) (or p20 p16 (not p4) (not p20) (not p18)) (or p19 p7 p3 p6 p16) (or (not p4) (not p4) p24 (not p9) p16) (or p19 p9 p11 (not p4) (not p9)) (or p21 (not p0) (not p11) (not p21) (not p11)) (or p7 p11 p8 (not p21) (not p22)) (or p1 p6 p0 p6 p14) (or (not p13) (not p8) p20 (not p18) (not p5)) (or p7 p23 p9 p8 (not p9)) (or p16 (not p18) (not p15) (not p14) (not p10)) (or p6 p2 p18 p22 p2) (or p12 p21 (not p3) (not p1) (not p16)) (or p1 (not p0) (not p6) p4 (not p1)) (or p2 (not p23) p12 (not p0) p5) (or (not p6) (not p23) (not p18) (not p16) (not p5)) (or p22 (not p8) (not p4) p20 p15) (or (not p12) (not p18) (not p11) (not p8) (not p3)) (or (not p18) p6 p16 (not p5) (not p4)) (or (not p18) p16 (not p2) (not p17) (not p20)) (or p9 p15 p11 (not p10) p18) (or p7 p3 p16 (not p24) p1) (or (not p8) p3 (not p3) (not p18) p6) (or (not p20) p0 (not p19) p7 p17) (or (not p15) p21 (not p11) p10 p12) (or (not p8) p19 p21 p14 p12) (or p18 (not p3) p11 (not p21) (not p7)) (or (not p15) (not p6) p0 p4 p9) (or p7 (not p21) (not p3) p20 p14) (or p19 (not p2) (not p14) (not p10) p12) (or p15 (not p11) (not p9) p16 p2) (or (not p22) (not p0) p5 p15 (not p20)) (or p0 (not p17) (not p13) p11 (not p5)) (or p0 (not p7) (not p1) (not p19) (not p20)) (or (not p18) (not p19) (not p6) (not p1) (not p12)) (or (not p7) p10 p2 p6 (not p18)) (or (not p9) (not p23) (not p13) (not p3) p10) (or (not p16) p13 (not p21) (not p0) p13) (or (not p8) (not p1) (not p14) (not p4) p22) (or p6 (not p17) (not p18) p3 p17) (or p21 p22 (not p22) (not p23) p24) (or p11 (not p2) (not p21) (not p1) p17) (or p4 (not p8) (not p5) p13 p7) (or p7 p15 (not p16) (not p6) p2) (or p18 p19 p23 (not p8) (not p10)) (or (not p18) (not p19) p6 p8 p11) (or p14 (not p22) (not p23) (not p22) (not p21)) (or (not p16) p15 p20 p19 (not p7)) (or p13 (not p14) p10 (not p19) (not p0)) (or (not p22) (not p15) p7 (not p19) (not p12)) (or p14 (not p5) (not p8) (not p9) p6) (or (not p5) (not p17) (not p21) (not p18) p1) (or p19 p0 p0 (not p22) (not p17)) (or (not p11) (not p6) p6 (not p6) p18) (or p2 p20 p2 p11 p24) (or p14 (not p2) (not p23) p2 (not p6)) (or p0 p13 (not p11) (not p5) (not p16)) (or p10 p20 (not p22) p8 p16) (or (not p11) p24 (not p0) (not p2) (not p11)) (or (not p2) (not p18) p11 p16 p20) (or p23 (not p14) (not p7) (not p20) (not p10)) (or p22 p19 (not p12) (not p20) p18) (or (not p8) p1 p24 (not p8) p7) (or (not p10) p2 p22 p4 p12) (or (not p3) p9 (not p12) (not p20) p11) (or (not p19) (not p13) (not p22) (not p2) p8) (or (not p22) p9 p2 p8 p3) (or (not p16) p7 p9 p22 p7) (or (not p6) p11 p19 (not p24) p22) (or (not p3) p16 p3 p16 (not p4)) (or (not p7) (not p7) (not p22) p9 (not p7)) (or (not p10) (not p15) p13 (not p5) (not p8)) (or p14 (not p7) (not p10) p20 (not p2)) (or p12 p8 (not p17) p14 p12) (or (not p12) p21 p19 p18 p24) (or p6 (not p10) (not p0) p21 p7) (or p4 p13 p21 (not p23) p13) (or (not p3) p1 (not p21) (not p18) (not p18)) (or p0 (not p16) (not p1) p12 p10) (or p3 (not p23) p14 (not p20) p8) (or p5 (not p24) p6 p16 (not p2)) (or (not p11) (not p14) p2 (not p2) p21) (or p9 p23 p10 (not p1) (not p0)) (or (not p24) p10 p20 p21 p1) (or (not p9) p11 p17 (not p5) (not p12)) (or (not p15) p19 p9 p13 (not p19)) (or (not p14) (not p11) p5 p6 p0) (or (not p9) p12 p11 p23 p3) (or (not p2) p3 (not p17) p17 (not p3)) (or (not p6) (not p12) p19 p1 (not p9)) (or p14 (not p9) (not p19) (not p20) p8) (or (not p6) (not p24) p23 p21 (not p18)) (or (not p16) p9 p2 p18 (not p1)) (or (not p1) p3 p13 (not p6) (not p19)) (or p16 (not p6) p5 (not p21) (not p13)) (or p7 p17 (not p23) (not p7) (not p14)) (or (not p1) p10 (not p4) (not p18) p0) (or (not p17) p23 p15 (not p14) (not p21)) (or (not p24) p14 p11 p9 (not p6)) (or (not p4) p18 p15 (not p0) (not p1)) (or p14 (not p3) (not p9) (not p3) (not p10)) (or (not p3) (not p14) (not p9) (not p17) (not p23)) (or (not p12) (not p6) (not p23) (not p5) (not p16)) (or p4 p22 p19 p20 p5) (or p12 p15 (not p15) p20 (not p12)) (or (not p19) (not p1) (not p15) p12 (not p11)) (or p2 (not p1) p1 (not p5) (not p7)) (or p22 (not p22) p7 p1 p22) (or (not p4) p17 p21 (not p13) p20) (or (not p13) (not p20) (not p11) p17 p2) (or (not p22) p21 p24 (not p11) (not p4)) (or (not p9) p18 (not p21) (not p15) (not p4)) (or p21 (not p22) p19 (not p4) (not p9)) (or (not p12) p11 (not p22) p0 p15) (or p5 (not p12) (not p22) p16 (not p2)) (or p2 p5 (not p24) (not p14) (not p12)) (or p7 p17 (not p3) (not p2) p12) (or (not p2) p23 (not p14) p17 (not p3)) (or p2 (not p19) p20 p6 p6) (or (not p5) (not p21) (not p10) (not p7) p19) (or (not p15) (not p2) p24 (not p2) (not p24)) (or (not p15) (not p0) p0 (not p0) p21) (or (not p24) p11 p3 p10 (not p7)) (or (not p15) p5 (not p19) p19 p9) (or (not p13) p2 p16 p11 p9) (or p0 p8 (not p19) (not p15) (not p10)) (or (not p8) (not p24) (not p9) (not p23) p15) (or p3 (not p20) p20 p3 p9) (or (not p2) p15 p21 p1 p5) (or (not p1) (not p15) p9 (not p0) p0) (or (not p12) p0 p23 (not p19) (not p19)) (or (not p6) p17 p11 p1 (not p13)) (or (not p19) (not p15) (not p19) (not p9) p9) (or (not p5) (not p7) (not p0) p15 (not p13)) (or (not p14) p21 p18 (not p14) p16) (or p17 (not p24) (not p6) (not p11) (not p10)) (or (not p16) p1 p13 (not p11) (not p9)) (or p0 (not p20) p2 (not p23) (not p13)) (or (not p21) p8 (not p5) p7 (not p2)) (or (not p7) p16 (not p6) (not p3) (not p12)) (or p10 p6 (not p6) (not p17) p1) (or (not p18) p13 (not p23) p1 p17) (or (not p21) (not p6) (not p22) (not p24) p24) (or p4 (not p1) p1 (not p18) (not p6)) (or (not p10) p9 p2 p16 p7) (or p1 (not p18) (not p23) p20 (not p3)) (or (not p9) (not p24) p7 p2 p0) (or (not p21) (not p16) p22 (not p5) p9) (or (not p8) (not p5) p22 (not p13) (not p1)) (or p22 p17 (not p20) p1 p23) (or p1 p1 (not p15) p16 (not p24)) (or (not p15) (not p14) (not p7) p0 p13) (or p14 (not p4) (not p10) p7 (not p5)) (or (not p5) p7 p3 p18 p22) (or p0 p5 (not p2) p16 p4) (or (not p16) p20 (not p3) (not p15) p6) (or p5 (not p3) (not p8) p18 p12) (or (not p22) (not p11) p23 (not p14) (not p12)) (or p5 p4 p22 (not p2) (not p18)) (or p16 (not p24) p19 (not p21) (not p11)) (or p15 p18 (not p23) p15 p11) (or p10 (not p8) (not p21) (not p12) p23) (or p23 p17 (not p5) p1 (not p24)) (or (not p20) (not p3) (not p22) p6 (not p21)) (or p18 p1 p4 (not p3) (not p19)) (or p11 (not p23) p4 p4 (not p23)) (or (not p18) p17 p6 p1 p23) (or p4 (not p22) p16 (not p4) (not p9)) (or (not p13) (not p14) (not p20) p18 (not p12)) (or (not p1) p12 (not p21) p20 p7) (or (not p12) p15 (not p23) p21 (not p2)) (or (not p12) p9 p15 (not p7) p2) (or p6 p8 (not p21) (not p14) p1) (or p17 (not p22) (not p17) (not p0) p13) (or p11 p9 (not p0) p12 (not p19)) (or (not p22) p15 p8 (not p16) (not p24)) (or (not p23) (not p1) p10 (not p9) p16) (or p2 p1 p0 p23 (not p19)) (or p2 p2 p16 p4 (not p22)) (or p11 p7 p13 p22 (not p4)) (or (not p20) (not p2) p6 (not p14) p12) (or p11 (not p2) p3 (not p23) p4) (or (not p13) (not p14) p1 (not p5) p17) (or p19 (not p2) p5 (not p12) (not p0)) (or p3 (not p14) p24 p2 p7) (or (not p14) p4 (not p23) p19 (not p6)) (or (not p13) (not p16) (not p17) p7 (not p4)) (or p10 p18 p6 (not p12) p19) (or p2 p12 (not p5) (not p11) (not p1)) (or p11 p8 p21 p2 (not p7)) (or p22 (not p9) p12 (not p6) (not p1)) (or p20 (not p22) (not p19) p13 p11) (or (not p15) (not p10) (not p7) p23 (not p24)) (or (not p23) (not p16) (not p10) (not p6) (not p7)) (or (not p18) p1 (not p17) p15 (not p5)) (or (not p8) (not p9) (not p24) (not p17) p13) (or p15 p21 (not p14) p11 (not p11)) (or p5 p20 p15 p14 p2) (or (not p20) (not p12) p11 (not p14) (not p24)) (or (not p13) p20 (not p10) p20 p17) (or p7 (not p19) (not p15) (not p24) p22) (or (not p11) (not p11) (not p24) (not p19) (not p10)) (or (not p15) (not p21) p5 p18 p20) (or (not p17) (not p21) p16 p9 p9) (or (not p13) (not p20) p1 (not p1) (not p16)) (or p8 p13 p23 p0 (not p8)) (or p9 p2 (not p16) p9 p19) (or (not p3) p18 p1 p9 (not p4)) (or p8 p13 p22 (not p3) p21) (or (not p22) (not p21) (not p7) p6 p9) (or p1 (not p7) (not p3) p14 p15) (or p16 (not p14) p5 (not p8) (not p5)) (or p22 (not p7) p1 p14 (not p21)) (or (not p13) (not p7) (not p21) p18 (not p14)) (or p1 p18 (not p7) p19 (not p3)) (or p1 (not p12) p17 (not p3) p23) (or (not p18) p18 p18 p9 p11) (or (not p2) p22 (not p3) (not p14) (not p13)) (or p9 p16 (not p24) (not p13) p24) (or p9 (not p3) (not p24) p12 (not p22)) (or (not p1) (not p19) p6 (not p21) (not p20)) (or (not p15) (not p23) (not p4) (not p20) p23) (or p10 p11 (not p7) p21 p8) (or p9 (not p19) p7 (not p6) p8) (or p22 p4 p21 p7 (not p19)) (or p21 p7 p8 (not p22) (not p23)) (or (not p15) (not p7) (not p8) (not p17) (not p20)) (or (not p18) (not p15) p4 (not p12) p16) (or p18 p19 p15 p9 (not p13)) (or p20 (not p3) p5 p24 (not p15)) (or p12 p21 p12 (not p13) p6) (or p23 (not p24) (not p8) (not p7) (not p5)) (or (not p17) (not p6) p5 (not p5) p15) (or (not p14) (not p5) (not p7) p19 p2) (or p19 (not p19) (not p20) p23 (not p4)) (or (not p2) p23 p3 (not p22) p21) (or (not p21) p10 (not p22) p11 (not p16)) (or p5 p16 p9 p21 p6) (or p23 p18 (not p13) p21 (not p8)) (or p20 p5 (not p1) (not p20) p2) (or (not p2) p12 (not p17) p11 p15) (or (not p15) (not p19) p4 p21 (not p5)) (or (not p1) p1 p2 p6 (not p4)) (or (not p6) p23 (not p0) p5 p2) (or p13 (not p23) p14 p24 p5) (or (not p12) p16 p0 p6 (not p15)) (or (not p12) (not p20) p18 p2 (not p20)) (or p6 p13 p22 (not p0) p4) (or p24 (not p0) p10 p8 p24) (or p6 (not p11) (not p1) p3 p12) (or p4 (not p13) (not p18) (not p0) (not p3)) (or (not p13) p14 (not p20) (not p7) p3) (or p18 p2 (not p16) (not p11) p9) (or (not p12) p3 (not p9) p14 (not p7)) (or (not p3) p4 p1 p7 (not p7)) (or p21 p19 (not p1) p20 (not p1)) (or p15 p19 (not p7) (not p4) (not p20)) (or p0 p10 p10 p10 p18) (or p24 (not p2) (not p23) (not p5) p23) (or (not p24) (not p11) (not p17) p13 p13) (or p21 (not p20) (not p11) p16 p3) (or (not p10) p16 p9 p17 (not p21)) (or (not p5) p4 p20 (not p12) (not p13)) (or (not p7) (not p13) (not p23) (not p17) p7) (or (not p8) p11 p0 (not p10) p3) (or (not p8) (not p14) p5 p15 p16) (or p14 p19 p22 p10 (not p11)) (or (not p2) p0 p20 p24 (not p21)) (or p22 (not p15) p6 (not p10) (not p22)) (or (not p12) p20 p2 (not p0) (not p22)) (or p20 p7 (not p20) p14 p23) (or (not p3) p15 p9 p2 p18) (or p9 (not p0) (not p23) p8 (not p16)) (or (not p24) (not p8) p20 (not p17) (not p15)) (or (not p3) (not p1) p0 (not p23) p10) (or p18 (not p23) (not p5) (not p8) (not p15)) (or (not p23) p16 p14 (not p11) p1) (or p13 (not p8) p12 (not p24) p14) (or p13 (not p8) p8 (not p24) p19) (or (not p20) (not p13) (not p23) p17 (not p9)) (or p12 (not p7) (not p12) p0 p15) (or p15 (not p19) p23 p0 (not p1)) (or p1 p8 p0 p6 (not p18)) (or p3 (not p17) p24 p0 p16) (or p6 p17 (not p16) p4 (not p8)) (or p18 p13 (not p15) p11 p20) (or (not p2) (not p19) p12 p13 (not p18)) (or (not p4) (not p16) (not p8) (not p16) p2) (or p20 p23 (not p18) p22 (not p8)) (or p3 (not p13) (not p23) p19 p12) (or (not p14) p17 (not p11) (not p22) p22) (or (not p9) (not p24) p22 (not p8) p0) (or (not p4) (not p16) p15 (not p1) p19) (or (not p1) (not p14) (not p6) (not p23) (not p5)) (or (not p20) (not p19) (not p19) p7 (not p8)) (or (not p13) (not p6) (not p14) p17 p24) (or (not p17) (not p19) p8 p3 p21) (or p4 p1 (not p5) p3 (not p3)) (or p24 (not p11) (not p1) p2 p23) (or p1 (not p20) (not p24) (not p8) (not p3)) (or p24 p22 p17 (not p9) (not p20)) (or p11 (not p11) (not p5) p7 p20) (or (not p1) (not p18) (not p17) p12 (not p3)) (or (not p6) p6 (not p11) (not p11) (not p10)) (or (not p0) (not p23) (not p11) (not p8) p16) (or p20 p6 p17 p5 p24) (or (not p3) p14 (not p4) (not p10) (not p17)) (or p19 (not p14) p1 (not p21) p4) (or (not p19) (not p4) p9 p21 p17) (or (not p7) p16 (not p11) (not p6) p8) (or p18 p22 (not p4) p18 (not p20)) (or (not p13) p4 (not p5) (not p3) p0) (or p22 p0 (not p10) p10 p9) (or (not p18) p16 (not p15) p9 (not p5)) (or (not p5) p24 p22 p7 p17) (or (not p16) (not p4) p23 p7 (not p23)) (or (not p7) p0 (not p1) (not p12) p11) (or (not p10) (not p15) (not p0) p6 (not p8)) (or (not p11) (not p22) (not p19) p10 (not p10)) (or p2 p11 p17 p14 (not p10)) (or (not p21) (not p20) p23 (not p9) (not p24)) (or p18 p2 p20 p18 p20) (or (not p5) p24 (not p18) (not p6) p16) (or (not p0) (not p20) p11 (not p12) (not p12)) (or p10 (not p0) p0 (not p22) (not p4)) (or (not p16) p10 p0 (not p17) (not p17)) (or (not p0) p4 (not p3) (not p9) p11) (or p2 (not p23) (not p24) p15 (not p8)) (or (not p17) (not p4) (not p18) p23 (not p9)) (or p18 (not p5) p16 (not p16) p15) (or p18 (not p16) p10 (not p3) p15) (or p19 (not p5) p16 (not p16) p21) (or (not p12) p7 p13 p14 p4) (or (not p8) (not p14) p15 p19 p18) (or (not p7) p19 p10 p2 p14) (or (not p19) (not p1) p0 (not p6) (not p14)) (or (not p7) (not p16) p1 p0 p4) (or p6 p5 (not p18) p9 (not p2)) (or (not p5) p6 (not p5) p3 p2) (or (not p18) p3 (not p3) p2 p12) (or p14 (not p11) p10 (not p11) p12) (or (not p3) p12 p2 (not p18) (not p3)) (or (not p7) (not p11) p5 (not p22) p18) (or (not p8) (not p5) (not p24) p0 p14) (or p10 p5 (not p4) p1 p10) (or p19 p21 (not p24) (not p13) p22) (or p13 (not p21) (not p14) p8 p15) (or p22 (not p8) (not p16) (not p9) p10) (or p0 (not p3) (not p18) (not p18) p24) (or p0 p8 p12 p17 p5) (or p7 p11 (not p13) (not p21) p10) (or p1 (not p20) (not p17) (not p14) p0) (or (not p18) (not p19) p1 p2 p15) (or (not p20) (not p12) p11 p20 (not p15)) (or p7 (not p8) (not p8) (not p22) p22) (or (not p14) (not p0) (not p12) p0 (not p23)) (or (not p15) (not p0) (not p7) p16 p20) (or p15 p24 (not p19) p8 p11) (or (not p2) (not p8) (not p9) (not p21) (not p7)) (or p23 p5 (not p20) (not p5) (not p21)) (or (not p23) p9 p19 p23 p3) (or p1 (not p10) p5 p21 p8) (or (not p2) p24 (not p5) p18 (not p20)) (or (not p10) (not p17) (not p21) (not p1) (not p12)) (or p23 p9 (not p11) (not p3) p15) (or (not p14) (not p19) (not p11) (not p21) (not p19)) (or (not p6) (not p24) (not p19) p11 (not p1)) (or (not p16) p11 p5 (not p0) p9) (or p22 (not p22) p12 p12 p8) (or p3 (not p0) (not p4) p6 p16) (or p19 p13 p19 p19 (not p19)) (or (not p22) p17 p2 p0 (not p23)) (or (not p18) (not p8) p3 (not p8) p19) (or (not p10) (not p13) p23 p5 (not p5)) (or p17 p20 p10 p0 (not p0)) (or (not p1) p13 (not p23) p19 p13) (or (not p18) (not p11) (not p23) p11 p21) (or (not p5) (not p3) (not p8) p6 (not p5)) (or (not p17) p1 p11 p10 (not p18)) (or (not p21) p22 p15 p15 p20) (or (not p23) (not p22) p6 (not p13) (not p1)) (or (not p10) (not p1) (not p22) (not p1) (not p4)) (or p16 p16 (not p19) p4 p1) (or p3 (not p5) (not p14) p1 (not p18)) (or p4 (not p24) p5 p22 p8) (or p17 (not p9) p12 (not p10) p15) (or p23 (not p22) (not p15) p18 (not p2)) (or (not p0) (not p18) p10 p10 (not p1)) (or p17 p10 p23 p6 p1) (or (not p17) p10 (not p5) (not p11) (not p21)) (or (not p23) p11 p2 (not p1) p0) (or p9 p16 p4 (not p10) p20) (or (not p7) p3 (not p13) (not p11) (not p10)) (or (not p13) (not p23) p14 p22 (not p15)) (or (not p1) p5 (not p10) (not p23) (not p9)) (or p18 p17 (not p7) p7 (not p20)) (or (not p2) p8 p19 (not p0) (not p14)) (or (not p14) (not p20) (not p14) p24 (not p12)) (or p18 p21 p8 (not p19) (not p6)) (or p8 p10 p15 (not p13) p15) (or p9 (not p11) p11 (not p7) (not p16)) (or (not p17) (not p6) (not p16) (not p3) p20) (or (not p7) p1 (not p3) p20 p1) (or p8 (not p4) (not p13) p0 (not p8)) (or (not p23) p9 (not p5) p13 p2) (or (not p17) p11 p5 (not p5) (not p5)) (or p11 p5 p0 p7 p8) (or p14 p19 (not p21) (not p17) p15) (or p17 (not p16) p13 (not p16) (not p20)) (or (not p24) (not p3) p22 (not p18) (not p14)) (or p21 (not p19) (not p15) p1 (not p21)) (or (not p5) (not p16) p20 (not p13) (not p5)) (or (not p1) p7 (not p6) p7 (not p19)))
)
(check-sat)
(get-model)
